 vasp.5.4.1 24Jun15 (build May 02 2016 14:41:14) complex

 executed on           IFC91_ompi date 2023.05.11  23:49:42

 INCAR:
 POTCAR:   PAW_PBE Si 05Jan2001

 POTCAR:   PAW_PBE Si 05Jan2001
   VRHFIN =Si: s2p2

   TITEL  = PAW_PBE Si 05Jan2001
   POMASS =   28.085; ZVAL   =    4.000    mass and valenz
   ENMAX  =  245.345; ENMIN  =  184.009 eV
   QCUT   =   -4.246; QGAM   =    8.493    optimization parameters

   Description
     l     E      TYP  RCUT    TYP  RCUT
     0   .000     23  1.900
     0   .000     23  1.900
     1   .000     23  1.900
     1   .000     23  1.900
     2   .000      7  1.900

 PAW_PBE Si 05Jan2001                   :

 POSCAR: Real silicon (diamond-like)
  positions in direct lattice
 exchange correlation table for  LEXCH =        8
   RHO(1)=    0.500       N(1)  =     2000
   RHO(2)=  100.500       N(2)  =     4000

 ion  position               nearest neighbor table
   1  0.875  0.875  0.875-   2 2.38   2 2.38   2 2.38   2 2.38
   2  0.125  0.125  0.125-   1 2.38   1 2.38   1 2.38   1 2.38

  LATTYP: Found a face centered cubic cell.
 ALAT       =     5.5000000000

  Lattice vectors:

 A1 = (   0.0000000000,   2.7500000000,   2.7500000000)
 A2 = (   2.7500000000,   0.0000000000,   2.7500000000)
 A3 = (   2.7500000000,   2.7500000000,   0.0000000000)

Analysis of symmetry for initial positions (statically):
 Subroutine PRICEL returns:
 Original cell was already a primitive cell.

 Routine SETGRP: Setting up the symmetry group for a
 face centered cubic supercell.

 Subroutine GETGRP returns: Found 48 space group operations
 (whereof 12 operations were pure point group operations)
 out of a pool of 48 trial point group operations.

The static configuration has the point symmetry D_3d.
 The point group associated with its full space group is O_h .

Analysis of symmetry for dynamics (positions and initial velocities):
 Subroutine PRICEL returns:
 Original cell was already a primitive cell.

 Routine SETGRP: Setting up the symmetry group for a
 face centered cubic supercell.

 Subroutine GETGRP returns: Found 48 space group operations
 (whereof 12 operations were pure point group operations)
 out of a pool of 48 trial point group operations.

The dynamic configuration has the point symmetry D_3d.
 The point group associated with its full space group is O_h .

 KPOINTS: K-points

Automatic generation of k-mesh.
Space group operators:
 irot       det(A)        alpha          n_x          n_y          n_z        tau_x        tau_y        tau_z
    1     1.000000     0.000000     1.000000     0.000000     0.000000     0.000000     0.000000     0.000000
    2    -1.000000     0.000000     1.000000     0.000000     0.000000     0.000000     0.000000     0.000000
    3     1.000000   120.000000    -0.577350    -0.577350    -0.577350     0.000000     0.000000     0.000000
    4    -1.000000   120.000000    -0.577350    -0.577350    -0.577350     0.000000     0.000000     0.000000
    5     1.000000   120.000000     0.577350     0.577350     0.577350     0.000000     0.000000     0.000000
    6    -1.000000   120.000000     0.577350     0.577350     0.577350     0.000000     0.000000     0.000000
    7     1.000000   180.000000     0.000000    -0.707107     0.707107     0.000000     0.000000     0.000000
    8    -1.000000   180.000000     0.000000    -0.707107     0.707107     0.000000     0.000000     0.000000
    9     1.000000   180.000000     0.707107    -0.707107     0.000000     0.000000     0.000000     0.000000
   10    -1.000000   180.000000     0.707107    -0.707107     0.000000     0.000000     0.000000     0.000000
   11     1.000000   180.000000     0.707107     0.000000    -0.707107     0.000000     0.000000     0.000000
   12    -1.000000   180.000000     0.707107     0.000000    -0.707107     0.000000     0.000000     0.000000
   13     1.000000    90.000000     0.000000     0.000000    -1.000000     0.500000     0.000000     0.000000
   14    -1.000000    90.000000     0.000000     0.000000    -1.000000     0.500000     0.000000     0.000000
   15     1.000000   180.000000     0.000000     0.707107     0.707107     0.500000     0.000000     0.000000
   16    -1.000000   180.000000     0.000000     0.707107     0.707107     0.500000     0.000000     0.000000
   17     1.000000    90.000000     0.000000     1.000000     0.000000     0.500000     0.000000     0.000000
   18    -1.000000    90.000000     0.000000     1.000000     0.000000     0.500000     0.000000     0.000000
   19     1.000000   180.000000     0.000000     0.000000     1.000000     0.000000     0.000000     0.500000
   20    -1.000000   180.000000     0.000000     0.000000     1.000000     0.000000     0.000000     0.500000
   21     1.000000   120.000000    -0.577350     0.577350     0.577350     0.000000     0.000000     0.500000
   22    -1.000000   120.000000    -0.577350     0.577350     0.577350     0.000000     0.000000     0.500000
   23     1.000000   120.000000    -0.577350     0.577350    -0.577350     0.000000     0.000000     0.500000
   24    -1.000000   120.000000    -0.577350     0.577350    -0.577350     0.000000     0.000000     0.500000
   25     1.000000    90.000000     0.000000     0.000000     1.000000     0.000000     0.500000     0.000000
   26    -1.000000    90.000000     0.000000     0.000000     1.000000     0.000000     0.500000     0.000000
   27     1.000000    90.000000    -1.000000     0.000000     0.000000     0.000000     0.500000     0.000000
   28    -1.000000    90.000000    -1.000000     0.000000     0.000000     0.000000     0.500000     0.000000
   29     1.000000   180.000000     0.707107     0.000000     0.707107     0.000000     0.500000     0.000000
   30    -1.000000   180.000000     0.707107     0.000000     0.707107     0.000000     0.500000     0.000000
   31     1.000000   120.000000     0.577350    -0.577350     0.577350     0.500000     0.000000     0.000000
   32    -1.000000   120.000000     0.577350    -0.577350     0.577350     0.500000     0.000000     0.000000
   33     1.000000   120.000000    -0.577350    -0.577350     0.577350     0.500000     0.000000     0.000000
   34    -1.000000   120.000000    -0.577350    -0.577350     0.577350     0.500000     0.000000     0.000000
   35     1.000000   180.000000     1.000000     0.000000     0.000000     0.500000     0.000000     0.000000
   36    -1.000000   180.000000     1.000000     0.000000     0.000000     0.500000     0.000000     0.000000
   37     1.000000    90.000000     0.000000    -1.000000     0.000000     0.000000     0.000000     0.500000
   38    -1.000000    90.000000     0.000000    -1.000000     0.000000     0.000000     0.000000     0.500000
   39     1.000000   180.000000     0.707107     0.707107     0.000000     0.000000     0.000000     0.500000
   40    -1.000000   180.000000     0.707107     0.707107     0.000000     0.000000     0.000000     0.500000
   41     1.000000    90.000000     1.000000     0.000000     0.000000     0.000000     0.000000     0.500000
   42    -1.000000    90.000000     1.000000     0.000000     0.000000     0.000000     0.000000     0.500000
   43     1.000000   120.000000     0.577350    -0.577350    -0.577350     0.000000     0.500000     0.000000
   44    -1.000000   120.000000     0.577350    -0.577350    -0.577350     0.000000     0.500000     0.000000
   45     1.000000   180.000000     0.000000     1.000000     0.000000     0.000000     0.500000     0.000000
   46    -1.000000   180.000000     0.000000     1.000000     0.000000     0.000000     0.500000     0.000000
   47     1.000000   120.000000     0.577350     0.577350    -0.577350     0.000000     0.500000     0.000000
   48    -1.000000   120.000000     0.577350     0.577350    -0.577350     0.000000     0.500000     0.000000

 Subroutine IBZKPT returns following result:

 Found    120 irreducible k-points:

 Following reciprocal coordinates:
            Coordinates               Weight
  0.000000  0.000000  0.000000      1.000000
  0.066667  0.000000  0.000000      8.000000
  0.133333  0.000000  0.000000      8.000000
  0.200000  0.000000  0.000000      8.000000
  0.266667  0.000000  0.000000      8.000000
  0.333333  0.000000  0.000000      8.000000
  0.400000  0.000000  0.000000      8.000000
  0.466667  0.000000  0.000000      8.000000
  0.066667  0.066667  0.000000      6.000000
  0.133333  0.066667  0.000000     24.000000
  0.200000  0.066667  0.000000     24.000000
  0.266667  0.066667  0.000000     24.000000
  0.333333  0.066667  0.000000     24.000000
  0.400000  0.066667  0.000000     24.000000
  0.466667  0.066667  0.000000     24.000000
 -0.466667  0.066667  0.000000     24.000000
 -0.400000  0.066667  0.000000     24.000000
 -0.333333  0.066667  0.000000     24.000000
 -0.266667  0.066667  0.000000     24.000000
 -0.200000  0.066667  0.000000     24.000000
 -0.133333  0.066667  0.000000     24.000000
 -0.066667  0.066667  0.000000     12.000000
  0.133333  0.133333  0.000000      6.000000
  0.200000  0.133333  0.000000     24.000000
  0.266667  0.133333  0.000000     24.000000
  0.333333  0.133333  0.000000     24.000000
  0.400000  0.133333  0.000000     24.000000
  0.466667  0.133333  0.000000     24.000000
 -0.466667  0.133333  0.000000     24.000000
 -0.400000  0.133333  0.000000     24.000000
 -0.333333  0.133333  0.000000     24.000000
 -0.266667  0.133333  0.000000     24.000000
 -0.200000  0.133333  0.000000     24.000000
 -0.133333  0.133333  0.000000     12.000000
  0.200000  0.200000  0.000000      6.000000
  0.266667  0.200000  0.000000     24.000000
  0.333333  0.200000  0.000000     24.000000
  0.400000  0.200000  0.000000     24.000000
  0.466667  0.200000  0.000000     24.000000
 -0.466667  0.200000  0.000000     24.000000
 -0.400000  0.200000  0.000000     24.000000
 -0.333333  0.200000  0.000000     24.000000
 -0.266667  0.200000  0.000000     24.000000
 -0.200000  0.200000  0.000000     12.000000
  0.266667  0.266667  0.000000      6.000000
  0.333333  0.266667  0.000000     24.000000
  0.400000  0.266667  0.000000     24.000000
  0.466667  0.266667  0.000000     24.000000
 -0.466667  0.266667  0.000000     24.000000
 -0.400000  0.266667  0.000000     24.000000
 -0.333333  0.266667  0.000000     24.000000
 -0.266667  0.266667  0.000000     12.000000
  0.333333  0.333333  0.000000      6.000000
  0.400000  0.333333  0.000000     24.000000
  0.466667  0.333333  0.000000     24.000000
 -0.466667  0.333333  0.000000     24.000000
 -0.400000  0.333333  0.000000     24.000000
 -0.333333  0.333333  0.000000     12.000000
  0.400000  0.400000  0.000000      6.000000
  0.466667  0.400000  0.000000     24.000000
[...]
 -0.466667  0.333333  0.133333     48.000000
 -0.400000  0.333333  0.133333     48.000000
 -0.333333  0.333333  0.133333     48.000000
 -0.266667  0.333333  0.133333     48.000000
 -0.200000  0.333333  0.133333     24.000000
 -0.466667  0.400000  0.133333     24.000000
 -0.400000  0.400000  0.133333     48.000000
 -0.333333  0.400000  0.133333     48.000000
 -0.266667  0.400000  0.133333     24.000000
 -0.400000  0.466667  0.133333     24.000000
 -0.333333  0.466667  0.133333     24.000000
[...]
 k-point 26 :   0.3333 0.1333 0.0000  plane waves:    1053
 k-point 27 :   0.4000 0.1333 0.0000  plane waves:    1060
 k-point 28 :   0.4667 0.1333 0.0000  plane waves:    1055
 k-point 29 :  -0.4667 0.1333 0.0000  plane waves:    1059
 k-point 30 :  -0.4000 0.1333 0.0000  plane waves:    1056
 k-point 31 :  -0.3333 0.1333 0.0000  plane waves:    1057
 k-point 32 :  -0.2667 0.1333 0.0000  plane waves:    1054
 k-point 33 :  -0.2000 0.1333 0.0000  plane waves:    1058
 k-point 34 :  -0.1333 0.1333 0.0000  plane waves:    1049
 k-point 35 :   0.2000 0.2000 0.0000  plane waves:    1054
 k-point 36 :   0.2667 0.2000 0.0000  plane waves:    1055
 k-point 37 :   0.3333 0.2000 0.0000  plane waves:    1052
 k-point 38 :   0.4000 0.2000 0.0000  plane waves:    1046
 k-point 39 :   0.4667 0.2000 0.0000  plane waves:    1058
 k-point 40 :  -0.4667 0.2000 0.0000  plane waves:    1069
 k-point 41 :  -0.4000 0.2000 0.0000  plane waves:    1073
 k-point 42 :  -0.3333 0.2000 0.0000  plane waves:    1057
 k-point 43 :  -0.2667 0.2000 0.0000  plane waves:    1054
 k-point 44 :  -0.2000 0.2000 0.0000  plane waves:    1057
 k-point 45 :   0.2667 0.2667 0.0000  plane waves:    1054
 k-point 46 :   0.3333 0.2667 0.0000  plane waves:    1046
 k-point 47 :   0.4000 0.2667 0.0000  plane waves:    1050
 k-point 48 :   0.4667 0.2667 0.0000  plane waves:    1056
 k-point 49 :  -0.4667 0.2667 0.0000  plane waves:    1059
 k-point 50 :  -0.4000 0.2667 0.0000  plane waves:    1060
 k-point 51 :  -0.3333 0.2667 0.0000  plane waves:    1058
 k-point 52 :  -0.2667 0.2667 0.0000  plane waves:    1057
 k-point 53 :   0.3333 0.3333 0.0000  plane waves:    1046
 k-point 54 :   0.4000 0.3333 0.0000  plane waves:    1048
 k-point 55 :   0.4667 0.3333 0.0000  plane waves:    1052
 k-point 56 :  -0.4667 0.3333 0.0000  plane waves:    1057
 k-point 57 :  -0.4000 0.3333 0.0000  plane waves:    1058
 k-point 58 :  -0.3333 0.3333 0.0000  plane waves:    1063
 k-point 59 :   0.4000 0.4000 0.0000  plane waves:    1042
 k-point 60 :   0.4667 0.4000 0.0000  plane waves:    1063
[...]
 k-point 85 :  -0.4000 0.2667 0.0667  plane waves:    1057
 k-point 86 :  -0.3333 0.2667 0.0667  plane waves:    1061
 k-point 87 :  -0.2667 0.2667 0.0667  plane waves:    1056
 k-point 88 :  -0.2000 0.2667 0.0667  plane waves:    1058
 k-point 89 :   0.4000 0.3333 0.0667  plane waves:    1052
 k-point 90 :   0.4667 0.3333 0.0667  plane waves:    1058
 k-point 91 :  -0.4667 0.3333 0.0667  plane waves:    1062
 k-point 92 :  -0.4000 0.3333 0.0667  plane waves:    1059
 k-point 93 :  -0.3333 0.3333 0.0667  plane waves:    1059
 k-point 94 :  -0.2667 0.3333 0.0667  plane waves:    1064
 k-point 95 :   0.4667 0.4000 0.0667  plane waves:    1055
 k-point 96 :  -0.4667 0.4000 0.0667  plane waves:    1059
 k-point 97 :  -0.4000 0.4000 0.0667  plane waves:    1064
 k-point 98 :  -0.3333 0.4000 0.0667  plane waves:    1061
 k-point 99 :  -0.4667 0.4667 0.0667  plane waves:    1060
 k-point ** :  -0.4000 0.4667 0.0667  plane waves:    1059
 k-point ** :   0.4000 0.2667 0.1333  plane waves:    1052
 k-point ** :   0.4667 0.2667 0.1333  plane waves:    1055
 k-point ** :  -0.4667 0.2667 0.1333  plane waves:    1063
 k-point ** :  -0.4000 0.2667 0.1333  plane waves:    1061
 k-point ** :   0.4667 0.3333 0.1333  plane waves:    1056
 k-point ** :  -0.4667 0.3333 0.1333  plane waves:    1054
 k-point ** :  -0.4000 0.3333 0.1333  plane waves:    1062
 k-point ** :  -0.3333 0.3333 0.1333  plane waves:    1063
 k-point ** :  -0.2667 0.3333 0.1333  plane waves:    1064
 k-point ** :  -0.2000 0.3333 0.1333  plane waves:    1052
 k-point ** :  -0.4667 0.4000 0.1333  plane waves:    1059
 k-point ** :  -0.4000 0.4000 0.1333  plane waves:    1059
 k-point ** :  -0.3333 0.4000 0.1333  plane waves:    1063
 k-point ** :  -0.2667 0.4000 0.1333  plane waves:    1063
 k-point ** :  -0.4000 0.4667 0.1333  plane waves:    1058
 k-point ** :  -0.3333 0.4667 0.1333  plane waves:    1065
 k-point ** :  -0.4000 0.4000 0.2000  plane waves:    1052
 k-point ** :  -0.3333 0.4000 0.2000  plane waves:    1061
 k-point ** :  -0.3333 0.4667 0.2000  plane waves:    1055
 k-point ** :  -0.2667 0.4667 0.2000  plane waves:    1059

 maximum and minimum number of plane-waves per node :      1073     1031

 maximum number of plane-waves:      1073
 maximum index in each direction:
   IXMAX=    7   IYMAX=    7   IZMAX=    7
   IXMIN=   -7   IYMIN=   -7   IZMIN=   -7

 WARNING: aliasing errors must be expected set NGX to  30 to avoid them
 WARNING: aliasing errors must be expected set NGY to  30 to avoid them
 WARNING: aliasing errors must be expected set NGZ to  30 to avoid them
 aliasing errors are usually negligible using standard VASP settings
 and one can safely disregard these warnings

 serial   3D FFT for wavefunctions
 parallel 3D FFT for charge:
    minimum data exchange during FFTs selected (reduces bandwidth)

 Broyden mixing: mesh for mixing (old mesh)
   NGX = 15   NGY = 15   NGZ = 15
  (NGX  = 48   NGY  = 48   NGZ  = 48)
  gives a total of   3375 points

 initial charge density was supplied:
 charge density of overlapping atoms calculated
 number of electron       8.0000000 magnetization
 keeping initial charge density in first step

 Maximum index for augmentation-charges          757 (set IRDMAX)

 First call to EWALD:  gamma=   0.512
 Maximum number of real-space cells 3x 3x 3
 Maximum number of reciprocal cells 3x 3x 3

 FEWALD executed in parallel

----------------------------------------- Iteration    1(   1)  ---------------------------------------

 eigenvalue-minimisations  :  3856
 total energy-change (2. order) :-0.2094979E+01  (-0.3158317E+03)
 number of electron       8.0000000 magnetization
 augmentation part        8.0000000 magnetization

 Free energy of the ion-electron system (eV)
  alpha Z        PSCENC =         3.23732084
  Ewald energy   TEWEN  =      -225.65453461
  -Hartree energ DENC   =       -11.58535014
  -exchange      EXHF   =         0.00000000
  -V(xc)+E(xc)   XCENC  =       -18.75122845
  PAW double counting   =        65.95520812      -30.76852678
  entropy T*S    EENTRO =        -0.00177128
  eigenvalues    EBANDS =         9.34138966
  atomic energy  EATOM  =       206.13251344
  Solvation  Ediel_sol  =         0.00000000
  free energy    TOTEN  =        -2.09497921 eV

  energy without entropy =       -2.09320793  energy(sigma->0) =       -2.09409357

[...]

 Broyden mixing:
  rms(total) = 0.29155E+00    rms(broyden)= 0.29155E+00
  rms(prec ) = 0.83672E+00
  weight for this iteration     100.00

[...]

 eigenvalue-minimisations  :  5408
 total energy-change (2. order) : 0.1089073E+00  (-0.7049125E-02)
 number of electron       8.0000000 magnetization
 augmentation part       -0.4636851 magnetization

[...]

 eigenvalues of (default mixing * dielectric matrix)
  average eigenvalue GAMMA=   2.4453
  2.4453

[...]

 average (electrostatic) potential at core
  the test charge radii are     0.9892
  (the norm of the test charge is              1.0000)
       1 -83.6717       2 -83.6717

 E-fermi :   5.7653     XC(G=0):  -9.2609     alpha+bet :-11.5327

 k-point     1 :       0.0000    0.0000    0.0000
  band No.  band energies     occupation
      1      -6.2527      2.00000
      2       5.4473      1.99999
      3       5.4473      1.99999
      4       5.4473      1.99999
      5       7.9967      0.00000
      6       7.9967      0.00000
      7       7.9967      0.00000
      8       8.3877      0.00000
      9      13.1473      0.00000
     10      13.1473      0.00000
     11      13.2588      0.00000
     12      16.5727      0.00000
     13      16.5727      0.00000
     14      16.5727      0.00000
     15      20.6156      0.00000
     16      28.0996      0.00000

[...]

 soft charge-density along one line, spin component           1
         0         1         2         3         4         5         6         7         8         9
 total charge-density along one line

------------------------ aborting loop because EDIFF is reached ----------------------------------------

  FORCE on cell =-STRESS in cart. coord.  units (eV):
  Direction    XX          YY          ZZ          XY          YZ          ZX
  Alpha Z     3.23732     3.23732     3.23732
  Ewald     -75.21821   -75.21821   -75.21821     0.00000     0.00000    -0.00000
  Hartree     5.12546     5.12546     5.12546     0.00000     0.00000     0.00000
  E(xc)     -25.14844   -25.14844   -25.14844    -0.00000    -0.00000    -0.00000
  Local     -29.75220   -29.75220   -29.75220     0.00001     0.00001     0.00001
  n-local    78.06086    79.58407    73.82807     2.16587    -1.27909     0.48933
  augment   -11.64745   -11.64745   -11.64745    -0.00001    -0.00001    -0.00001
  Kinetic    58.08146    55.51334    53.99679     3.58633    -0.70117     1.04791
  Fock        0.00000     0.00000     0.00000     0.00000     0.00000     0.00000
  Total      -0.38199    -0.38199    -0.38199     0.00000     0.00000     0.00000
  in kB     -14.71424   -14.71424   -14.71424     0.00000     0.00000     0.00000

 VOLUME and BASIS-vectors are now :
  energy-cutoff  :      500.00
  volume of cell :       41.59
      direct lattice vectors                 reciprocal lattice vectors
     0.000000000  2.750000000  2.750000000    -0.181818182  0.181818182  0.181818182
     2.750000000  0.000000000  2.750000000     0.181818182 -0.181818182  0.181818182
     2.750000000  2.750000000  0.000000000     0.181818182  0.181818182 -0.181818182

[...]

 FORCES acting on ions
    electron-ion (+dipol)            ewald-force                    non-local-force                 convergence-correction
   0.250E-06 0.250E-06 0.227E-06   -.224E-14 0.478E-15 0.477E-15   -.694E-17 0.180E-15 0.729E-16   -.843E-09 -.843E-09 -.843E-09
   -.250E-06 -.250E-06 -.227E-06   0.208E-14 -.115E-14 -.887E-15   -.590E-16 -.125E-15 -.937E-16   0.843E-09 0.843E-09 0.843E-09
   0.412E-13 0.127E-12 -.958E-14   -.158E-15 -.674E-15 -.410E-15   -.659E-16 0.555E-16 -.208E-16   -.117E-14 0.529E-15 0.576E-15

 POSITION                                       TOTAL-FORCE (eV/Angst)
      4.81250      4.81250      4.81250         0.000000      0.000000      0.000000
      0.68750      0.68750      0.68750        -0.000000     -0.000000     -0.000000
    total drift:                                0.000000      0.000000     -0.000000

  FREE ENERGIE OF THE ION-ELECTRON SYSTEM (eV)
  free  energy   TOTEN  =       -10.84658530 eV

  energy  without entropy=      -10.84658529  energy(sigma->0) =      -10.84658529

[...]

 d Force = 0.0000000E+00[ 0.000E+00, 0.000E+00]  d Energy = 0.2057349E-02-0.206E-02
 d Force = 0.0000000E+00[ 0.000E+00, 0.000E+00]  d Ewald  = 0.2098557E+01-0.210E+01

 Steepest descent step on ions:
 trial-energy change:   -0.002057  1 .order   -0.001917   -0.010559    0.006725
  (g-gl).g = 0.106E-01      g.g   = 0.106E-01  gl.gl    = 0.000E+00
 g(Force)  = 0.501E-45   g(Stress)= 0.106E-01 ortho     = 0.000E+00
 gamma     =   0.00000
 trial     =   1.00000
 opt step  =   0.62236  (harmonic =   0.61090) maximal distance =0.00000000
 next E    =   -10.849905   (d E  =  -0.00332)

[...]

 eigenvalue-minimisations  :  4544
 total energy-change (2. order) :-0.1899889E-02  (-0.2396610E-02)
 number of electron       7.9999999 magnetization
 augmentation part       -0.4593261 magnetization

[...]

 d Force = 0.0000000E+00[ 0.000E+00, 0.000E+00]  d Energy = 0.1269314E-02-0.127E-02
 d Force = 0.0000000E+00[ 0.000E+00, 0.000E+00]  d Ewald  =-0.7970708E+00 0.797E+00

 FEWALD executed in parallel

[...]

 Broyden mixing:
  rms(total) = 0.47728E-05    rms(broyden)= 0.47728E-05
  rms(prec ) = 0.11429E-04
  weight for this iteration     100.00

 eigenvalues of (default mixing * dielectric matrix)
  average eigenvalue GAMMA=   2.0514
  1.7863  2.3164

[...]

----------------------------------------- Iteration    4(   4)  ---------------------------------------

 eigenvalue-minimisations  :  1952
 total energy-change (2. order) : 0.1564089E-07  (-0.6012952E-10)
 number of electron       7.9999999 magnetization
 augmentation part       -0.4583546 magnetization

 Free energy of the ion-electron system (eV)
  alpha Z        PSCENC =         3.29342755
  Ewald energy   TEWEN  =      -226.95069781
  -Hartree energ DENC   =       -15.16986633
  -exchange      EXHF   =         0.00000000
  -V(xc)+E(xc)   XCENC  =       -18.06018868
  PAW double counting   =        73.61421485      -38.63303454
  entropy T*S    EENTRO =        -0.00000001
  eigenvalues    EBANDS =         4.92371946
  atomic energy  EATOM  =       206.13251344
  Solvation  Ediel_sol  =         0.00000000
  free energy    TOTEN  =       -10.84991208 eV

  energy without entropy =      -10.84991207  energy(sigma->0) =      -10.84991208

 average (electrostatic) potential at core
  the test charge radii are     0.9892
  (the norm of the test charge is              1.0000)
       1 -83.4822       2 -83.4822

 E-fermi :   5.9200     XC(G=0):  -9.3277     alpha+bet :-11.7326

[...]

 k-point   120 :      -0.2667    0.4667    0.2000
  band No.  band energies     occupation
      1      -2.2582      2.00000
      2      -1.7059      2.00000
      3       1.6514      2.00000
      4       2.1416      2.00000
      5       9.2414      0.00000
      6      10.1291      0.00000
      7      10.7752      0.00000
      8      10.8260      0.00000
      9      15.4288      0.00000
     10      16.3476      0.00000
     11      18.1564      0.00000
     12      19.1411      0.00000
     13      21.3565      0.00000
     14      22.2282      0.00000
     15      23.6365      0.00000
     16      23.7378      0.00000

 soft charge-density along one line, spin component           1
         0         1         2         3         4         5         6         7         8         9
 total charge-density along one line

------------------------ aborting loop because EDIFF is reached ----------------------------------------

  FORCE on cell =-STRESS in cart. coord.  units (eV):
  Direction    XX          YY          ZZ          XY          YZ          ZX
  Alpha Z     3.29343     3.29343     3.29343
  Ewald     -75.65027   -75.65027   -75.65027     0.00000    -0.00000    -0.00000
  Hartree     5.05662     5.05662     5.05662     0.00000     0.00000     0.00000
  E(xc)     -25.24631   -25.24631   -25.24631    -0.00000    -0.00000    -0.00000
  Local     -29.50838   -29.50838   -29.50838     0.00001     0.00001     0.00001
  n-local    78.36148    79.88774    74.11464     2.20121    -1.30499     0.50386
  augment   -11.64914   -11.64914   -11.64914    -0.00001    -0.00001    -0.00001
  Kinetic    58.48109    55.76015    54.50691     3.58643    -0.67062     1.05156
  Fock        0.00000     0.00000     0.00000     0.00000     0.00000     0.00000
  Total      -0.00005    -0.00005    -0.00005     0.00000     0.00000    -0.00000
  in kB      -0.00203    -0.00203    -0.00203     0.00000     0.00000    -0.00000

 VOLUME and BASIS-vectors are now :
  energy-cutoff  :      500.00
  volume of cell :       40.89
      direct lattice vectors                 reciprocal lattice vectors
     0.000000000  2.734294171  2.734294171    -0.182862548  0.182862548  0.182862548
     2.734294171  0.000000000  2.734294171     0.182862548 -0.182862548  0.182862548
     2.734294171  2.734294171  0.000000000     0.182862548  0.182862548 -0.182862548

  length of vectors
     3.866875900  3.866875900  3.866875900     0.316727224  0.316727224  0.316727224

 FORCES acting on ions
    electron-ion (+dipol)            ewald-force                    non-local-force                 convergence-correction
   0.222E-06 0.222E-06 0.210E-06   0.749E-15 -.128E-14 -.161E-14   0.194E-15 0.212E-15 0.212E-15   0.214E-11 0.214E-11 0.214E-11
   -.222E-06 -.222E-06 -.210E-06   -.680E-15 0.574E-15 0.165E-14   -.180E-15 -.291E-15 -.121E-15   -.214E-11 -.214E-11 -.214E-11
   0.320E-13 0.123E-12 0.111E-14   0.692E-16 -.709E-15 0.373E-16   0.139E-16 -.798E-16 0.902E-16   -.795E-16 -.815E-15 -.800E-15

 POSITION                                       TOTAL-FORCE (eV/Angst)
      4.78501      4.78501      4.78501         0.000000     -0.000000     -0.000000
      0.68357      0.68357      0.68357        -0.000000      0.000000      0.000000
    total drift:                                0.000000      0.000000      0.000000

  FREE ENERGIE OF THE ION-ELECTRON SYSTEM (eV)
  free  energy   TOTEN  =       -10.84991208 eV

  energy  without entropy=      -10.84991207  energy(sigma->0) =      -10.84991208

 d Force = 0.0000000E+00[ 0.000E+00, 0.000E+00]  d Energy = 0.1236161E-06-0.124E-06
 d Force = 0.0000000E+00[ 0.000E+00, 0.000E+00]  d Ewald  =-0.5323328E-02 0.532E-02

 reached required accuracy - stopping structural energy minimisation
 writing wavefunctions